CPXPARAM_TimeLimit                               3600
CPXPARAM_Read_DataCheck                          1
CPXPARAM_MIP_Strategy_HeuristicFreq              -1
Tried aggregator 1 time.
LP Presolve eliminated 131 rows and 90 columns.
Reduced LP has 269 rows, 46 columns, and 763 nonzeros.
Presolve time = 0.00 sec. (0.18 ticks)

Iteration log . . .
Iteration:     1   Dual objective     =            23.000000
Iteration:    62   Dual objective     =            26.333333
